100
30
6
5
31
22
16
7
13
7
19
8
23
30
7
9
10
31
22
15
11
16
31
13
2
13
13
9
4
5
32
8
4
24
14
22
14
30
19
20
12
29
27
20
4
31
22
24
29
15
14
30
29
31
27
1
26
27
29
10
30
22
7
25
5
31
14
20
31
22
28
20
27
16
2
30
29
32
17
2
16
3
3
6
16
16
5
18
20
1
12
5
1
23
25
11
31
5
24
17
13
16